33D32945 STP File, STP Format Version 1.0

SECTION Comment
Name "lin03-50s"
Creator "Bernd Zey"
Problem "Stochastic Steiner Tree Problem"
# Stochastic Steiner tree problem instance, base file: lin03.stp
# weight-scaling off
# parameters:
# distribution=equal
# selectRootRandomly=0
# probabilityTerminal=33
# probabilityNonTerminal=5
# 2nd stage edge-costs in [1.1000c_e, 1.3000c_e]
END

SECTION Graph
Nodes 57
Edges 84
Scenarios 50
Root 4
E 1 55 10
E 1 36 74
E 1 12 70
E 2 56 110
E 2 26 160
E 3 50 66
E 3 55 24
E 3 46 93
E 4 31 31
E 4 19 11
E 5 30 8
E 5 10 56
E 6 49 12
E 6 9 39
E 6 53 50
E 7 16 88
E 7 32 144
E 7 18 48
E 7 28 160
E 8 13 74
E 8 31 6
E 8 56 160
E 9 25 25
E 10 49 42
E 10 31 62
E 11 44 88
E 11 21 26
E 11 17 2
E 12 57 2
E 12 15 42
E 13 18 44
E 13 46 69
E 13 38 160
E 14 16 160
E 14 28 88
E 15 47 2
E 15 30 18
E 16 37 144
E 17 20 88
E 17 51 26
E 17 52 146
E 19 49 62
E 19 26 62
E 20 44 2
E 20 29 146
E 21 42 76
E 21 51 2
E 22 45 102
E 22 48 60
E 23 52 26
E 23 51 146
E 23 55 66
E 23 50 24
E 24 30 2
E 24 47 18
E 24 25 52
E 25 33 18
E 26 53 62
E 27 36 72
E 27 54 72
E 27 57 74
E 28 38 92
E 29 52 88
E 29 43 24
E 32 37 88
E 32 40 18
E 33 35 21
E 33 41 50
E 34 51 31
E 34 39 45
E 35 47 31
E 36 39 72
E 37 43 18
E 38 56 74
E 39 42 2
E 39 54 72
E 40 43 88
E 40 52 24
E 40 50 26
E 41 48 130
E 41 53 82
E 42 45 72
E 45 54 2
E 47 57 42
END

SECTION StochasticProbabilities
SP 0.014200 0.012200 0.024400 0.010200 0.028400 0.024400 0.018300 0.012200 0.020300 0.022400 0.020300 0.028400 0.016300 0.012200 0.020300 0.012200 0.032500 0.020300 0.018300 0.028400 0.014200 0.016300 0.030500 0.022400 0.020300 0.036600 0.024400 0.016300 0.026400 0.022300 0.014100 0.022300 0.026300 0.022300 0.014100 0.014100 0.010100 0.022300 0.0060000 0.010100 0.022300 0.016200 0.012100 0.034400 0.024300 0.018200 0.028300 0.026300 0.014100 0.016200
END

SECTION StochasticWeights
SE 11 11 11 12 11 11 12 13 11 13 11 13 11 12 11 11 13 11 12 11 13 12 13 12 13 12 11 12 12 12 13 13 13 13 11 13 11 13 13 13 12 12 11 13 13 12 11 12 13 12 
SE 90 95 89 92 96 82 95 88 93 82 84 93 90 84 84 91 83 89 94 90 93 93 86 93 84 88 82 82 86 94 96 91 91 83 93 93 84 95 84 84 95 82 90 94 87 92 87 87 82 88 
SE 89 83 79 80 87 91 78 82 80 79 79 81 82 86 79 83 88 90 78 89 77 89 85 82 81 88 82 77 85 90 77 82 78 90 87 88 87 88 86 91 84 87 82 77 78 88 86 82 88 82 
SE 130 142 131 140 132 132 131 124 135 136 134 142 134 137 124 127 124 126 142 124 133 125 130 126 127 128 135 123 140 128 137 128 143 131 126 139 136 125 127 128 122 123 140 138 135 131 133 133 122 135 
SE 186 196 197 186 193 200 185 179 179 193 181 208 197 189 195 205 185 192 196 182 194 192 181 188 201 190 185 198 177 179 187 181 195 201 208 205 206 204 193 203 178 185 184 195 178 191 204 190 182 204 
SE 80 84 80 84 78 73 83 73 73 82 81 82 82 84 85 83 78 79 73 73 73 73 82 83 77 82 84 76 85 83 73 81 78 80 73 78 78 83 76 80 84 82 81 76 81 78 73 73 82 79 
SE 27 28 30 31 30 29 27 31 27 31 27 27 31 29 30 29 27 29 30 27 27 28 29 29 29 27 31 30 30 29 27 30 29 30 28 31 27 27 27 30 30 28 31 30 31 27 30 27 27 27 
SE 120 108 104 110 109 115 110 112 120 106 115 111 119 108 107 106 109 110 108 103 120 117 110 109 105 118 103 118 109 114 107 103 113 103 109 106 120 109 104 105 110 103 103 114 103 103 117 103 108 116 
SE 40 35 38 38 37 40 39 35 36 40 39 36 35 37 40 35 36 36 38 37 37 38 37 40 37 35 39 39 39 35 35 37 39 35 35 36 35 39 38 35 35 39 35 39 36 35 39 39 35 39 
SE 14 13 13 14 13 13 14 14 13 14 13 14 13 14 13 13 14 14 14 13 13 14 14 13 13 13 14 13 13 13 13 13 14 13 13 13 13 14 14 14 14 13 13 13 14 13 13 13 13 13 
SE 9 9 10 10 9 10 9 10 10 10 10 9 9 10 10 9 10 9 9 9 10 9 9 10 9 9 9 9 10 9 10 9 10 9 9 9 10 9 9 9 10 10 10 10 10 9 9 9 10 9 
SE 71 69 65 62 66 70 66 62 69 66 64 70 62 70 65 67 69 71 66 71 72 62 63 62 67 67 67 69 68 62 66 62 68 68 70 71 65 66 64 63 72 69 67 72 66 67 71 71 70 65 
SE 15 14 14 15 14 14 14 14 14 14 15 15 14 15 15 14 14 14 14 14 14 14 14 14 14 15 14 14 14 14 14 15 14 15 15 14 14 15 14 14 15 14 14 14 14 14 15 15 15 14 
SE 49 48 49 50 49 47 43 44 45 50 49 46 46 45 47 43 43 43 50 44 46 49 47 46 45 46 46 47 48 43 46 49 47 47 47 47 47 43 50 44 50 46 50 50 49 45 45 45 44 50 
SE 62 62 58 61 61 61 59 59 60 65 59 59 63 58 59 57 61 61 61 60 56 62 62 63 62 65 56 58 58 61 63 65 56 63 63 59 64 61 61 56 65 58 58 57 65 65 56 62 60 57 
SE 110 111 100 108 98 111 104 97 100 108 105 110 99 97 106 99 113 98 107 101 102 112 97 106 99 100 106 107 114 113 99 104 99 109 113 100 101 97 102 104 97 98 104 99 114 113 110 97 100 112 
SE 175 181 170 166 182 184 167 179 172 161 167 173 173 184 167 163 181 175 183 171 169 165 179 170 178 176 185 170 164 167 165 166 183 175 183 167 167 177 179 185 177 163 182 165 176 166 164 169 176 172 
SE 61 58 62 61 58 54 60 55 57 53 59 53 57 62 53 62 58 56 54 58 54 55 59 62 53 53 60 54 58 53 55 53 57 54 55 58 53 55 53 58 54 54 54 54 56 58 62 57 56 56 
SE 186 184 185 187 185 202 199 201 205 176 208 200 208 187 187 185 188 202 197 182 184 189 190 195 207 189 198 180 194 191 192 178 208 208 193 197 206 188 205 200 187 185 205 200 186 208 183 187 192 177 
SE 86 96 87 85 89 95 83 96 94 88 86 94 95 95 85 94 90 89 82 88 94 89 83 92 87 82 82 93 82 90 82 82 84 90 93 87 93 82 92 96 82 88 83 91 93 96 94 95 86 91 
SE 7 7 7 7 7 7 7 7 7 7 7 7 7 7 7 7 7 7 7 7 7 7 7 7 7 7 7 7 7 7 7 7 7 7 7 7 7 7 7 7 7 7 7 7 7 7 7 7 7 7 
SE 190 186 188 206 199 181 203 199 177 190 185 197 197 205 198 198 205 206 181 183 179 202 183 205 186 194 196 192 190 194 182 192 191 192 196 183 184 177 208 184 207 188 192 193 198 198 185 182 181 181 
SE 32 29 31 28 31 30 28 28 32 30 28 32 30 31 28 28 28 29 29 31 31 30 28 28 29 30 28 32 31 32 29 30 30 30 28 30 28 30 30 32 28 29 30 31 30 28 32 30 30 32 
SE 51 49 50 47 54 47 47 51 49 49 48 52 49 54 48 51 51 47 47 47 47 53 54 47 52 47 54 47 48 47 48 47 48 51 50 50 47 51 52 50 47 49 51 47 54 47 49 54 54 53 
SE 80 70 78 72 72 69 73 70 76 76 71 73 79 70 78 69 76 75 73 76 69 72 70 76 78 74 75 75 74 72 73 71 79 70 69 72 79 75 72 75 69 69 70 70 79 69 77 73 71 79 
SE 102 108 104 103 112 106 103 108 107 110 103 106 99 100 108 97 102 108 99 107 113 104 103 104 104 106 97 109 103 108 99 110 109 98 103 107 105 100 105 99 109 109 104 101 99 113 107 98 98 108 
SE 29 32 31 30 30 29 29 30 30 32 30 30 30 30 31 31 32 30 32 30 33 30 31 29 29 33 31 31 31 32 30 31 33 30 31 30 29 31 31 32 29 32 30 30 29 29 33 30 32 33 
SE 3 3 3 3 3 3 3 3 3 3 3 3 3 3 3 3 3 3 3 3 3 3 3 3 3 3 3 3 3 3 3 3 3 3 3 3 3 3 3 3 3 3 3 3 3 3 3 3 3 3 
SE 3 3 3 3 3 3 3 3 3 3 3 3 3 3 3 3 3 3 3 3 3 3 3 3 3 3 3 3 3 3 3 3 3 3 3 3 3 3 3 3 3 3 3 3 3 3 3 3 3 3 
SE 47 47 52 48 49 50 52 48 51 47 53 50 47 54 47 48 47 54 47 47 50 48 48 52 47 48 54 52 47 54 47 54 51 53 47 48 53 47 51 49 51 54 47 48 47 51 47 49 52 52 
SE 55 56 51 49 50 52 53 51 51 49 54 56 49 56 56 49 50 55 49 57 49 53 49 56 57 51 57 54 57 49 51 53 55 49 50 57 56 55 50 54 49 51 52 57 51 56 49 57 56 50 
SE 83 79 88 78 88 83 84 85 86 85 84 86 83 85 82 85 80 89 88 83 79 82 85 80 86 77 82 84 83 81 85 76 83 81 77 78 82 87 87 79 88 78 76 78 88 88 79 81 76 82 
SE 199 192 180 187 181 200 197 179 190 177 184 189 184 176 198 186 193 181 198 185 206 199 203 188 184 203 189 189 188 201 203 201 204 201 190 191 206 182 180 180 189 187 207 188 185 198 191 198 201 180 
SE 183 196 181 206 201 185 184 182 179 208 201 191 182 193 189 196 184 191 194 207 202 192 179 179 176 204 199 192 196 203 199 180 200 185 207 202 199 202 182 192 197 202 177 195 192 177 177 208 197 194 
SE 106 108 113 112 114 105 113 97 99 110 106 103 114 109 113 100 98 97 114 104 99 114 97 111 107 108 112 108 97 108 114 112 110 97 108 101 98 113 111 107 98 101 101 101 98 103 110 110 103 114 
SE 3 3 3 3 3 3 3 3 3 3 3 3 3 3 3 3 3 3 3 3 3 3 3 3 3 3 3 3 3 3 3 3 3 3 3 3 3 3 3 3 3 3 3 3 3 3 3 3 3 3 
SE 23 22 22 23 23 21 20 23 21 20 20 22 23 20 21 21 22 20 23 22 20 21 20 22 20 20 20 22 23 22 23 23 22 22 20 20 21 20 20 22 22 20 20 23 23 20 20 20 20 22 
SE 173 176 170 174 180 177 174 170 187 165 171 169 159 171 174 174 182 168 181 183 178 160 186 171 174 177 167 180 177 182 185 181 161 164 182 168 166 187 161 179 170 174 169 169 181 162 180 167 179 164 
SE 103 114 105 99 113 114 109 100 109 99 112 106 113 102 113 112 110 101 108 106 111 110 114 97 112 111 99 114 114 101 110 97 103 103 114 103 105 98 108 110 110 100 105 105 111 111 98 107 108 111 
SE 31 33 32 31 30 31 31 33 29 30 29 29 33 29 30 30 31 29 33 32 29 33 29 32 29 31 29 29 32 29 30 33 30 30 29 33 29 32 31 30 32 33 32 33 29 33 29 29 29 33 
SE 174 189 178 185 185 164 163 186 171 166 186 161 168 185 182 186 164 185 164 163 162 188 181 177 186 184 169 167 186 169 162 173 169 165 167 178 174 164 174 175 178 178 163 161 169 171 178 161 180 170 
SE 79 69 78 69 77 69 72 73 77 71 77 69 69 79 72 80 80 77 73 76 75 80 78 77 80 75 69 76 75 71 79 80 76 73 69 74 72 70 80 73 69 80 74 74 77 69 77 72 78 76 
SE 70 74 79 69 69 77 73 71 72 72 76 72 74 75 69 79 76 69 77 71 80 71 76 74 79 75 71 78 69 77 71 73 72 80 69 77 72 74 70 70 80 80 71 76 75 71 79 78 78 69 
SE 3 3 3 3 3 3 3 3 3 3 3 3 3 3 3 3 3 3 3 3 3 3 3 3 3 3 3 3 3 3 3 3 3 3 3 3 3 3 3 3 3 3 3 3 3 3 3 3 3 3 
SE 167 174 181 179 187 176 184 166 163 188 182 182 163 186 168 176 161 163 179 161 167 178 183 181 162 184 184 180 179 161 178 173 182 167 183 176 165 175 169 181 163 165 175 185 167 169 167 188 161 161 
SE 91 90 93 86 86 92 84 95 94 87 97 98 84 91 88 93 98 86 87 94 89 84 92 91 84 84 98 84 97 85 87 90 96 86 97 87 86 86 98 87 84 87 86 94 91 98 90 91 94 93 
SE 3 3 3 3 3 3 3 3 3 3 3 3 3 3 3 3 3 3 3 3 3 3 3 3 3 3 3 3 3 3 3 3 3 3 3 3 3 3 3 3 3 3 3 3 3 3 3 3 3 3 
SE 115 114 119 129 130 127 119 130 118 124 123 114 125 132 118 128 126 118 127 132 126 122 118 122 122 116 131 127 124 126 113 115 129 131 122 131 115 114 125 132 114 129 113 130 117 115 126 124 122 131 
SE 75 76 66 70 76 69 74 71 68 69 67 67 71 77 75 73 78 75 70 76 66 72 68 72 67 76 70 76 71 78 73 69 66 77 70 72 75 72 71 67 77 75 68 77 78 68 74 68 71 71 
SE 31 32 32 30 31 30 29 32 30 29 31 31 29 32 31 29 29 31 29 33 29 29 29 31 31 29 30 29 32 31 33 30 32 32 33 29 32 33 29 31 31 32 31 29 30 30 29 31 32 30 
SE 168 167 184 182 171 184 174 173 181 181 165 187 170 171 173 171 165 163 169 163 184 175 180 169 174 161 168 166 164 181 162 164 180 162 178 187 167 167 164 168 173 167 184 164 177 169 184 180 164 171 
SE 77 79 80 85 84 78 75 85 78 73 79 85 74 78 78 75 81 73 79 78 77 81 81 81 74 79 73 75 75 78 82 83 75 73 79 83 84 79 74 80 76 78 76 78 75 82 84 76 79 75 
SE 28 29 28 30 29 31 29 27 30 27 30 28 28 29 30 28 30 27 28 28 29 30 31 27 27 28 28 29 29 29 27 29 30 29 29 29 29 27 29 29 28 31 27 31 27 31 28 27 31 27 
SE 3 3 3 3 3 3 3 3 3 3 3 3 3 3 3 3 3 3 3 3 3 3 3 3 3 3 3 3 3 3 3 3 3 3 3 3 3 3 3 3 3 3 3 3 3 3 3 3 3 3 
SE 21 21 23 21 20 22 22 21 20 20 20 21 20 20 20 21 20 22 20 21 22 22 23 20 23 22 21 22 20 23 22 21 20 20 21 22 20 20 21 20 22 21 20 20 20 23 20 21 22 21 
SE 63 60 67 63 66 63 60 65 67 64 65 59 63 63 64 59 65 63 64 62 65 60 67 58 64 66 64 58 59 62 61 58 58 59 64 63 67 60 60 63 61 65 63 67 63 64 62 63 59 65 
SE 22 20 20 22 20 22 20 20 20 22 20 20 23 22 21 20 22 20 22 20 20 21 20 20 21 21 21 20 20 21 20 21 22 20 23 21 22 23 20 20 21 20 20 20 20 23 21 23 21 22 
SE 76 76 74 72 77 78 79 77 73 71 74 69 74 74 79 75 73 71 73 76 79 69 69 74 78 78 80 79 76 73 76 79 71 72 72 80 78 77 78 69 72 69 74 71 80 69 72 70 76 70 
SE 88 90 82 80 93 85 90 89 89 80 92 87 84 85 80 80 80 80 80 87 80 85 90 80 83 81 91 80 88 91 85 93 87 92 82 85 92 82 88 85 83 91 80 86 85 85 89 91 87 92 
SE 89 93 80 91 92 80 80 92 82 81 80 89 93 93 91 80 80 91 88 86 85 86 83 93 92 82 83 88 90 84 89 84 85 83 93 83 80 84 91 92 88 88 93 91 81 89 86 81 81 82 
SE 87 89 94 85 83 86 83 83 88 94 82 95 96 89 96 90 91 90 82 84 85 82 93 92 82 95 92 86 87 92 83 92 92 87 94 95 84 84 91 87 87 82 95 87 83 88 84 89 92 87 
SE 115 102 108 110 108 103 109 104 104 116 106 102 117 112 115 111 103 103 107 104 117 112 111 111 102 106 118 109 102 119 112 116 113 112 106 117 108 107 103 109 104 111 102 109 104 114 112 113 107 108 
SE 111 112 114 109 108 114 112 108 107 104 109 103 112 101 99 103 104 113 97 98 102 103 99 99 112 111 114 114 114 97 105 109 113 104 108 102 98 99 99 106 107 107 97 104 111 108 112 107 102 112 
SE 30 31 27 27 31 27 27 30 27 27 29 30 31 27 29 28 29 27 27 29 27 27 27 27 31 29 27 29 27 28 29 29 29 31 29 30 28 29 27 28 27 28 27 27 27 27 27 28 31 29 
SE 110 99 97 108 107 113 99 103 99 99 101 104 97 107 111 106 98 114 104 99 97 99 109 112 100 107 105 110 97 106 112 114 110 111 99 105 105 110 109 108 111 105 97 113 104 97 106 101 114 108 
SE 20 22 22 20 20 20 21 20 20 21 20 22 20 20 23 20 20 20 20 20 20 20 20 22 21 20 23 23 22 21 23 20 22 21 22 22 21 20 20 21 20 20 23 22 21 20 23 20 20 22 
SE 24 24 27 27 24 26 26 27 24 24 26 27 27 25 26 27 25 24 26 27 25 25 25 25 26 27 27 24 25 24 27 27 25 26 24 25 24 26 24 25 25 24 26 25 27 27 24 26 24 24 
SE 63 59 56 64 58 56 63 60 65 57 65 62 56 56 58 58 62 56 64 63 56 63 65 60 62 63 60 58 56 56 60 64 56 56 56 61 65 62 63 63 60 61 57 59 58 58 58 63 57 56 
SE 37 37 35 39 35 39 39 35 37 36 40 38 40 36 35 40 40 37 39 38 38 35 35 37 35 40 40 35 40 38 36 37 35 37 35 39 38 39 38 39 40 39 37 35 40 37 37 39 39 36 
SE 52 50 50 52 56 56 57 58 50 53 56 57 52 56 54 58 51 54 50 58 57 56 57 51 50 57 50 55 54 58 50 50 57 57 52 57 54 53 52 50 53 53 55 53 54 51 52 57 51 50 
SE 35 35 35 36 35 35 39 36 36 37 39 35 35 35 35 35 39 40 39 40 39 35 39 35 37 36 37 35 37 37 39 36 37 35 39 37 36 36 38 40 36 35 40 36 35 37 37 37 36 35 
SE 84 80 80 82 88 88 92 80 82 82 80 81 93 90 89 90 86 82 84 93 82 88 86 89 81 84 90 84 92 84 80 92 86 92 80 81 87 93 84 80 87 80 80 84 81 83 90 89 92 81 
SE 23 23 20 20 23 21 21 20 21 20 21 21 20 22 21 20 21 20 22 22 22 22 23 20 20 20 22 22 20 22 20 20 22 20 20 23 23 22 21 23 21 22 20 22 20 20 21 22 20 21 
SE 82 82 86 85 86 93 93 89 89 92 95 84 84 89 88 88 82 87 82 83 92 82 82 88 82 84 85 96 95 93 92 91 84 83 82 83 93 87 90 91 96 82 86 94 95 92 96 94 86 95 
SE 3 3 3 3 3 3 3 3 3 3 3 3 3 3 3 3 3 3 3 3 3 3 3 3 3 3 3 3 3 3 3 3 3 3 3 3 3 3 3 3 3 3 3 3 3 3 3 3 3 3 
SE 85 80 87 87 85 82 82 91 84 87 83 80 82 85 80 91 88 83 82 83 92 90 88 86 87 87 88 80 87 80 80 80 84 92 88 86 84 84 87 86 82 89 82 80 83 86 80 83 86 80 
SE 98 110 106 97 105 102 109 104 104 100 110 108 97 111 105 112 112 100 114 113 104 97 99 101 108 107 97 99 109 97 100 97 106 111 106 97 105 105 114 114 108 97 112 105 114 113 111 113 98 112 
SE 30 29 30 27 28 31 27 27 29 27 29 30 27 27 27 27 27 30 29 28 31 30 27 27 27 27 29 30 27 28 30 28 30 31 27 30 27 31 31 31 30 31 31 27 30 31 29 27 29 31 
SE 29 33 29 32 32 29 30 31 29 29 31 33 29 29 29 30 29 30 29 29 32 31 32 29 29 32 33 29 30 29 30 29 33 31 33 30 29 30 29 31 30 31 31 31 29 32 30 33 29 30 
SE 153 159 168 145 169 150 160 145 164 161 148 154 153 144 143 163 147 152 165 151 162 159 148 143 165 143 158 152 158 165 166 148 155 158 146 150 167 160 149 156 145 152 150 159 157 151 148 165 150 146 
SE 98 91 91 101 98 98 96 91 96 103 95 94 104 96 106 91 100 94 91 97 101 104 93 91 102 102 104 99 97 94 106 105 101 97 99 101 95 99 94 103 106 97 91 106 91 106 96 91 101 92 
SE 80 92 92 91 86 87 92 86 84 80 88 91 80 81 85 80 80 91 90 85 89 93 92 83 80 92 80 86 86 80 85 81 83 81 80 85 83 88 91 82 88 84 85 84 87 83 80 89 86 89 
SE 3 3 3 3 3 3 3 3 3 3 3 3 3 3 3 3 3 3 3 3 3 3 3 3 3 3 3 3 3 3 3 3 3 3 3 3 3 3 3 3 3 3 3 3 3 3 3 3 3 3 
SE 49 47 49 51 53 52 49 50 52 52 49 47 48 52 52 47 48 53 49 50 48 49 51 51 50 47 54 53 51 47 54 51 48 50 47 52 52 51 48 49 49 51 47 54 53 51 54 49 47 47 
END

SECTION StochasticTerminals
ST 1 0 0 0 0 0 0 0 0 0 0 0 0 0 0 0 0 0 0 0 0 0 0 0 0 1 0 0 0 0 0 0 0 0 0 0 0 0 0 0 0 0 0 0 0 0 0 0 0 0 0 
ST 2 0 0 0 0 0 0 0 0 0 0 0 0 0 0 0 0 0 0 0 1 0 0 0 0 0 0 0 0 0 0 0 0 0 0 0 0 0 0 0 0 0 0 0 0 0 0 0 0 0 0 
ST 3 0 0 0 0 0 0 0 0 0 0 0 0 0 0 0 0 0 0 0 0 0 0 0 0 0 0 0 0 0 0 0 0 0 0 0 0 0 0 0 0 0 0 0 0 0 0 1 0 1 0 
ST 4 1 1 1 1 1 1 1 1 1 1 1 1 1 1 1 1 1 1 1 1 1 1 1 1 1 1 1 1 1 1 1 1 1 1 1 1 1 1 1 1 1 1 1 1 1 1 1 1 1 1 
ST 5 0 0 0 0 1 0 0 1 1 0 0 0 0 0 1 0 0 1 0 1 0 1 1 0 1 0 0 0 1 0 0 1 0 0 0 0 0 0 0 0 0 0 1 0 0 1 0 0 0 0 
ST 6 0 0 0 0 0 1 0 1 0 1 0 0 0 0 0 0 0 0 0 0 0 0 0 0 0 0 0 0 0 0 0 0 0 0 0 0 0 0 0 0 0 0 0 0 0 0 0 0 0 0 
ST 7 0 0 0 0 0 0 0 0 0 0 0 0 0 0 0 0 0 0 0 0 0 0 0 0 0 0 0 0 0 0 0 0 1 0 0 0 0 0 0 0 0 0 0 0 0 0 0 0 0 0 
ST 8 0 0 0 0 0 0 1 0 0 0 0 0 0 0 0 0 1 0 0 0 0 0 0 1 0 0 0 0 0 0 0 0 0 0 0 0 0 0 0 0 0 0 0 0 0 0 1 0 0 0 
ST 9 0 0 1 1 0 0 1 1 1 0 1 1 1 1 0 1 1 0 0 1 0 0 1 0 0 1 0 1 0 0 1 0 0 0 0 1 1 0 0 0 1 0 0 0 1 0 0 0 1 0 
ST 10 0 0 0 0 0 0 0 0 0 0 0 0 0 0 0 0 0 0 0 0 0 0 0 0 0 0 0 0 0 0 0 0 0 0 0 0 0 0 0 0 0 0 0 0 0 0 0 0 0 0 
ST 11 1 0 0 0 0 1 0 0 0 0 0 0 0 0 0 0 0 0 0 0 0 0 0 0 0 0 0 0 0 0 0 0 0 1 0 0 0 0 0 0 0 0 0 0 0 0 0 0 0 0 
ST 12 0 0 0 0 0 0 0 0 0 0 0 0 0 0 0 0 0 0 0 0 0 0 0 0 0 0 0 0 1 0 0 0 0 0 0 0 0 0 0 0 0 0 0 0 1 0 0 0 0 0 
ST 13 0 0 0 0 0 0 0 0 0 0 0 0 0 0 0 0 0 0 0 0 0 0 0 0 0 0 0 0 0 0 0 0 0 0 0 0 0 0 0 0 0 0 0 0 0 0 0 0 0 0 
ST 14 0 0 0 0 0 0 0 0 0 0 0 0 0 0 0 0 0 0 0 0 0 0 0 0 0 0 0 0 0 0 0 1 0 0 0 0 0 1 0 0 1 0 0 0 0 0 0 0 0 1 
ST 15 0 0 0 0 0 0 0 0 0 0 0 0 0 0 0 0 0 0 0 0 0 0 0 0 1 0 0 0 0 0 0 0 0 0 0 0 0 0 0 0 0 0 0 0 0 0 0 0 0 0 
ST 16 0 0 0 0 0 0 0 0 0 0 0 1 0 0 1 0 0 0 0 0 0 0 0 0 0 0 0 0 0 0 0 0 0 0 0 0 0 0 0 0 0 0 0 0 0 0 0 0 0 0 
ST 17 0 0 0 0 0 1 0 0 0 0 0 0 0 0 0 0 0 0 0 0 0 0 0 0 0 0 0 0 0 0 0 0 0 0 0 0 0 0 0 0 0 0 0 0 0 0 0 0 0 0 
ST 18 0 1 1 0 1 0 0 1 0 0 0 0 1 1 0 0 0 0 0 0 1 0 1 0 0 0 0 1 1 1 0 0 1 1 1 0 0 1 0 1 1 0 1 0 0 0 0 0 0 0 
ST 19 0 0 0 0 0 0 0 0 0 0 0 0 0 0 0 0 0 0 0 0 0 0 0 0 0 0 0 0 0 0 0 0 0 0 0 0 0 0 0 0 0 0 0 0 0 0 0 0 0 0 
ST 20 0 0 0 0 1 0 1 0 0 1 0 0 0 0 0 0 0 0 0 0 0 0 1 0 0 0 0 0 0 0 0 0 0 0 0 0 0 0 0 1 0 0 0 0 0 0 0 0 0 0 
ST 21 0 0 0 0 1 0 0 0 0 0 0 1 0 0 0 0 0 0 0 0 0 1 0 0 0 0 0 0 0 0 0 0 0 0 0 0 0 0 0 0 0 0 0 0 0 0 0 0 0 0 
ST 22 0 0 0 0 0 0 1 0 0 0 0 0 0 0 0 0 0 0 0 1 0 0 0 0 0 0 0 0 0 0 0 0 0 0 0 0 0 0 0 0 0 0 0 0 0 0 0 0 0 0 
ST 23 0 0 0 1 0 0 0 0 0 0 0 0 0 0 0 0 1 0 0 1 0 0 0 0 0 0 0 0 0 0 0 0 0 0 0 0 0 1 0 0 0 0 0 0 0 0 0 0 0 0 
ST 24 0 0 0 0 0 0 0 0 0 0 0 0 0 0 1 0 0 0 0 0 0 0 0 0 0 0 0 0 0 0 0 0 0 0 0 0 0 0 0 0 0 0 0 0 0 0 0 0 0 0 
ST 25 0 0 0 0 0 0 0 0 0 0 0 0 0 0 0 0 0 0 0 0 0 0 0 0 0 0 1 0 0 0 1 0 0 0 0 0 1 0 0 0 0 0 0 0 0 0 0 0 0 0 
ST 26 0 0 0 0 0 0 0 0 0 0 0 0 0 0 0 0 0 0 0 0 1 0 0 0 0 0 0 0 0 0 0 0 1 0 0 0 0 0 0 0 0 0 0 0 0 0 0 0 0 0 
ST 27 0 1 0 0 0 0 1 0 0 0 1 0 0 0 0 0 0 0 0 0 0 1 0 0 0 0 0 0 0 0 0 0 0 0 0 0 0 1 0 0 0 0 0 0 0 0 0 0 0 0 
ST 28 0 0 1 0 1 0 0 0 0 1 0 0 0 0 0 0 0 0 0 0 0 0 0 0 0 0 0 0 0 0 0 0 0 0 0 0 0 0 0 0 0 0 0 0 1 0 0 0 0 0 
ST 29 0 0 1 0 0 0 0 0 0 0 0 0 1 1 0 0 0 0 0 0 0 0 0 1 0 0 0 1 0 0 0 0 0 0 0 0 0 0 0 0 0 0 0 0 0 0 0 0 0 0 
ST 30 1 0 0 0 0 0 0 0 0 0 0 1 0 0 0 0 0 0 0 0 0 0 1 0 0 0 0 0 0 0 0 1 0 0 0 0 0 0 0 0 0 0 0 0 0 0 0 1 0 0 
ST 31 0 0 0 0 0 0 0 0 0 0 0 0 0 1 1 0 0 0 0 0 0 0 0 0 0 0 0 0 0 0 0 0 1 0 0 0 0 0 0 0 0 0 0 0 1 0 0 0 0 0 
ST 32 0 0 0 0 0 0 0 0 0 0 0 0 0 0 1 0 1 0 0 1 0 0 0 0 0 0 0 0 0 0 0 0 0 0 1 0 0 0 1 0 0 0 0 0 0 0 0 0 0 0 
ST 33 0 0 0 0 0 0 0 0 0 0 0 0 0 0 0 0 0 0 0 0 0 0 0 0 0 0 0 0 0 0 0 1 0 0 0 0 0 0 0 0 0 0 0 0 0 0 0 0 0 0 
ST 34 0 0 0 0 0 0 1 1 0 1 0 0 1 1 0 0 0 0 1 0 0 1 1 1 0 0 0 0 0 0 0 0 0 0 1 1 0 1 0 0 1 0 0 1 1 0 0 0 0 0 
ST 35 1 0 0 0 0 1 0 0 1 0 0 0 1 0 0 0 0 0 0 0 1 0 0 1 0 0 0 0 1 1 1 1 0 0 0 0 1 0 0 0 0 0 0 0 1 1 1 1 1 0 
ST 36 0 0 0 0 0 0 0 0 0 0 0 0 0 0 0 0 0 0 0 0 0 0 0 0 0 0 0 0 0 0 0 0 0 0 0 0 0 0 0 0 0 0 0 0 0 0 0 0 0 0 
ST 37 0 0 0 0 0 0 0 0 0 0 0 0 1 0 0 0 0 0 0 0 0 0 0 0 0 0 0 0 0 0 0 0 0 0 0 0 0 0 0 1 0 0 0 0 0 0 0 0 0 0 
ST 38 1 0 1 0 0 0 0 0 0 0 0 0 1 0 0 0 0 0 0 0 0 0 0 0 0 0 0 1 0 1 0 1 0 0 0 0 0 0 0 0 0 0 0 0 0 0 0 0 0 0 
ST 39 0 0 0 0 0 0 0 0 0 0 0 0 0 0 0 0 0 0 0 0 0 1 0 0 0 0 0 0 0 0 0 0 0 0 0 0 0 0 0 0 0 0 1 0 0 0 0 0 0 0 
ST 40 0 0 1 0 0 0 0 0 0 0 1 0 0 0 0 0 0 0 0 0 0 0 0 1 1 0 0 0 0 0 0 1 1 0 0 0 0 0 0 0 0 0 0 0 0 0 0 0 0 0 
ST 41 0 0 0 0 0 0 0 0 0 0 0 0 0 0 0 0 0 0 0 0 0 0 0 0 0 0 0 0 0 0 0 0 0 1 0 0 0 0 0 0 0 0 0 0 0 1 0 0 0 0 
ST 42 0 0 0 0 0 0 0 0 0 0 0 0 0 0 0 0 1 0 0 0 0 0 0 0 0 0 0 0 0 0 0 0 0 0 0 0 0 0 0 0 0 0 0 0 0 0 0 0 0 0 
ST 43 0 0 1 0 0 1 0 0 0 0 0 0 0 0 0 0 0 0 0 0 0 0 0 0 1 0 0 0 0 0 1 0 0 0 0 0 0 0 0 0 1 0 0 0 0 1 0 1 0 0 
ST 44 0 0 0 0 0 0 0 0 0 0 0 0 0 0 0 0 0 0 0 0 0 0 0 0 0 0 0 0 0 0 0 0 0 0 0 0 1 0 0 0 0 0 0 0 0 0 0 0 0 0 
ST 45 0 0 0 0 0 1 0 0 0 0 0 0 0 0 0 0 0 0 0 1 0 0 0 0 0 0 0 0 0 0 0 0 1 0 0 0 0 0 0 0 0 0 0 0 0 0 0 0 0 0 
ST 46 1 0 0 1 1 1 0 0 0 1 0 1 0 1 1 0 0 0 0 1 0 1 0 1 0 1 0 0 0 1 1 1 1 0 1 0 0 1 0 0 0 0 0 1 1 0 0 1 0 0 
ST 47 0 0 0 0 0 0 0 0 0 0 0 0 1 0 0 1 0 0 0 0 0 0 0 0 1 0 0 0 0 0 0 0 0 0 0 0 0 0 0 0 0 0 0 0 0 0 0 0 0 0 
ST 48 0 1 0 1 1 0 0 0 0 1 1 0 1 1 0 1 1 0 1 0 0 1 1 1 0 0 0 0 1 1 1 0 1 1 0 0 1 1 0 1 1 1 0 0 0 1 1 0 1 0 
ST 49 0 0 0 0 0 0 0 1 0 0 0 0 0 0 1 0 0 0 0 0 0 0 0 1 0 0 0 0 0 0 0 0 0 0 0 0 0 0 1 0 0 0 0 1 1 0 0 0 0 0 
ST 50 0 0 0 1 0 0 0 0 0 0 0 0 0 0 0 1 0 0 0 0 0 0 0 0 0 0 0 0 0 0 0 0 0 0 0 0 0 0 0 0 0 0 0 0 0 0 0 0 0 0 
ST 51 0 0 0 0 0 0 0 0 0 0 0 0 0 0 0 0 0 0 0 0 0 0 0 0 0 0 0 0 1 1 0 0 0 0 0 0 0 0 0 0 0 0 0 0 0 0 0 0 0 0 
ST 52 0 0 0 0 0 0 0 0 0 0 0 0 0 0 0 0 0 0 0 0 0 0 0 0 0 0 0 0 0 0 0 0 0 0 0 1 0 0 0 0 0 0 0 0 0 0 0 0 0 0 
ST 53 0 0 0 0 0 0 0 0 0 0 1 0 1 0 0 0 0 0 0 0 0 0 0 0 0 0 0 0 0 0 0 0 0 0 0 0 0 0 0 0 0 1 0 0 1 0 0 0 0 0 
ST 54 1 0 0 0 0 0 0 0 0 1 1 0 0 0 0 0 0 0 0 0 0 0 0 0 0 0 0 0 0 0 0 0 0 0 0 0 0 0 0 0 0 0 0 0 1 0 0 0 0 0 
ST 55 1 0 0 0 0 0 0 0 0 1 0 1 0 0 0 0 0 1 0 0 0 0 0 0 0 0 0 0 0 0 0 0 0 0 0 0 0 0 0 0 0 0 0 0 0 0 0 1 0 0 
ST 56 0 0 0 0 0 0 0 0 0 0 0 0 0 0 0 0 0 0 0 0 0 0 0 0 0 0 0 0 0 0 0 0 0 0 0 0 0 0 0 0 0 0 0 1 0 0 0 0 0 0 
ST 57 0 0 0 0 0 0 0 0 0 0 0 0 0 0 0 0 0 0 0 0 0 0 0 0 0 0 0 0 0 0 0 0 0 0 0 0 0 0 0 0 0 0 0 0 0 1 0 1 0 0 
END


SECTION Coordinates
DD 1 346 174
DD 2 0 0
DD 3 322 184
DD 4 160 73
DD 5 278 104
DD 6 222 50
DD 7 160 276
DD 8 160 110
DD 9 261 50
DD 10 222 104
DD 11 494 276
DD 12 346 104
DD 13 160 184
DD 14 0 364
DD 15 304 104
DD 16 160 364
DD 17 492 276
DD 18 160 228
DD 19 160 62
DD 20 492 364
DD 21 494 250
DD 22 494 0
DD 23 346 250
DD 24 286 102
DD 25 286 50
DD 26 160 0
DD 27 420 102
DD 28 0 276
DD 29 346 364
DD 30 286 104
DD 31 160 104
DD 32 304 276
DD 33 304 50
DD 34 492 219
DD 35 304 71
DD 36 420 174
DD 37 304 364
DD 38 0 184
DD 39 492 174
DD 40 322 276
DD 41 304 0
DD 42 494 174
DD 43 322 364
DD 44 494 364
DD 45 494 102
DD 46 229 184
DD 47 304 102
DD 48 434 0
DD 49 222 62
DD 50 322 250
DD 51 492 250
DD 52 346 276
DD 53 222 0
DD 54 492 102
DD 55 346 184
DD 56 0 110
DD 57 346 102
END

EOF
